p wcnf 128 153 154 
1 -109 -128 0 
1 20 -55 0 
1 15 13 0 
1 -5 84 0 
1 62 -20 0 
1 47 40 0 
1 -75 -128 0 
1 -71 -112 0 
1 -62 82 0 
1 62 -73 0 
1 -122 -70 0 
1 -57 -65 0 
1 123 95 0 
1 46 56 0 
1 11 -26 0 
1 39 19 0 
1 64 -2 0 
1 119 76 0 
1 21 78 0 
1 44 -42 0 
1 -52 67 0 
1 -122 59 0 
1 -102 24 0 
1 96 -95 0 
1 -91 -70 0 
1 20 -119 0 
1 2 108 0 
1 104 -36 0 
1 84 1 0 
1 -63 -67 0 
1 23 57 0 
1 -85 -33 0 
1 103 53 0 
1 -35 -7 0 
1 78 126 0 
1 -128 -32 0 
1 5 -61 0 
1 -26 18 0 
1 -5 -70 0 
1 -19 -13 0 
1 46 -83 0 
1 45 68 0 
1 -30 -32 0 
1 39 56 0 
1 57 95 0 
1 -108 -60 0 
1 61 123 0 
1 -118 32 0 
1 -116 1 0 
1 -31 -60 0 
1 -35 -53 0 
1 -106 59 0 
1 111 128 0 
1 -85 106 0 
1 -52 127 0 
1 -87 -36 0 
1 -28 69 0 
1 114 -101 0 
1 46 43 0 
1 102 -71 0 
1 -3 -110 0 
1 -64 -14 0 
1 -40 107 0 
1 128 -42 0 
1 113 2 0 
1 74 -82 0 
1 52 98 0 
1 62 -55 0 
1 -110 -64 0 
1 98 38 0 
1 -84 -71 0 
1 126 19 0 
1 86 -84 0 
1 -81 -20 0 
1 -23 -56 0 
1 82 28 0 
1 25 -99 0 
1 -67 60 0 
1 -23 70 0 
1 -43 -51 0 
1 106 -1 0 
1 92 -71 0 
1 45 30 0 
1 -93 -44 0 
1 -2 45 0 
1 106 -86 0 
1 81 102 0 
1 -117 24 0 
1 -31 50 0 
1 100 -18 0 
1 -116 80 0 
1 65 33 0 
1 106 78 0 
1 9 -18 0 
1 76 39 0 
1 11 -53 0 
1 69 15 0 
1 98 -70 0 
1 104 18 0 
1 -56 62 0 
1 -64 48 0 
1 122 -87 0 
1 -69 -55 0 
1 30 34 0 
1 117 40 0 
1 -97 -94 0 
1 121 -123 0 
1 -56 -108 0 
1 81 119 0 
1 -50 46 0 
1 40 58 0 
1 62 75 0 
1 -33 73 0 
1 97 61 0 
1 85 11 0 
1 103 42 0 
1 -23 -112 0 
1 -46 -97 0 
1 122 -67 0 
1 47 34 0 
1 -87 -47 0 
1 -114 -7 0 
1 50 -105 0 
1 125 -18 0 
1 123 -50 0 
1 27 125 0 
1 -41 100 0 
1 -57 -124 0 
1 -115 -73 0 
1 108 -68 0 
1 13 -37 0 
1 103 -51 0 
1 -36 6 0 
1 18 -79 0 
1 -120 117 0 
1 50 -11 0 
1 -27 21 0 
1 -32 -80 0 
1 -103 -104 0 
1 54 48 0 
1 117 12 0 
1 -28 -14 0 
1 123 30 0 
1 -29 -87 0 
1 18 -114 0 
1 48 -83 0 
1 32 33 0 
1 61 -4 0 
1 -48 -32 0 
1 -58 4 0 
1 -112 -24 0 
1 105 109 0 
1 -48 86 0 
